Ipopt 3.13.2: linear_solver=ma57
output_file=ipopt.out
file_print_level=12


******************************************************************************
This program contains Ipopt, a library for large-scale nonlinear optimization.
 Ipopt is released as open source code under the Eclipse Public License (EPL).
         For more information visit http://projects.coin-or.org/Ipopt

This version of Ipopt was compiled from source code available at
    https://github.com/IDAES/Ipopt as part of the Institute for the Design of
    Advanced Energy Systems Process Systems Engineering Framework (IDAES PSE
    Framework) Copyright (c) 2018-2019. See https://github.com/IDAES/idaes-pse.

This version of Ipopt was compiled using HSL, a collection of Fortran codes
    for large-scale scientific computation.  All technical papers, sales and
    publicity material resulting from use of the HSL codes within IPOPT must
    contain the following acknowledgement:
        HSL, a collection of Fortran codes for large-scale scientific
        computation. See http://www.hsl.rl.ac.uk.
******************************************************************************

This is Ipopt version 3.13.2, running with linear solver ma57.

Number of nonzeros in equality constraint Jacobian...:    11392
Number of nonzeros in inequality constraint Jacobian.:        0
Number of nonzeros in Lagrangian Hessian.............:        0

Total number of variables............................:     4212
                     variables with only lower bounds:        0
                variables with lower and upper bounds:        0
                     variables with only upper bounds:        0
Total number of equality constraints.................:     4212
Total number of inequality constraints...............:        0
        inequality constraints with only lower bounds:        0
   inequality constraints with lower and upper bounds:        0
        inequality constraints with only upper bounds:        0

iter    objective    inf_pr   inf_du lg(mu)  ||d||  lg(rg) alpha_du alpha_pr  ls
   0  0.0000000e+00 1.00e+00 0.00e+00  -1.0 0.00e+00    -  0.00e+00 0.00e+00   0
Reallocating memory for MA57: lfact (248077)
   1  0.0000000e+00 2.90e-12 0.00e+00  -1.7 4.00e+02    -  1.00e+00 1.00e+00h  1

Number of Iterations....: 1

                                   (scaled)                 (unscaled)
Objective...............:   0.0000000000000000e+00    0.0000000000000000e+00
Dual infeasibility......:   0.0000000000000000e+00    0.0000000000000000e+00
Constraint violation....:   2.8994584511110588e-12    2.8994584511110588e-12
Complementarity.........:   0.0000000000000000e+00    0.0000000000000000e+00
Overall NLP error.......:   2.8994584511110588e-12    2.8994584511110588e-12


Number of objective function evaluations             = 2
Number of objective gradient evaluations             = 2
Number of equality constraint evaluations            = 2
Number of inequality constraint evaluations          = 0
Number of equality constraint Jacobian evaluations   = 2
Number of inequality constraint Jacobian evaluations = 0
Number of Lagrangian Hessian evaluations             = 1
Total CPU secs in IPOPT (w/o function evaluations)   =      0.087
Total CPU secs in NLP function evaluations           =      0.000

EXIT: Optimal Solution Found.
Ipopt 3.13.2: linear_solver=ma57
output_file=ipopt.out
file_print_level=12


******************************************************************************
This program contains Ipopt, a library for large-scale nonlinear optimization.
 Ipopt is released as open source code under the Eclipse Public License (EPL).
         For more information visit http://projects.coin-or.org/Ipopt

This version of Ipopt was compiled from source code available at
    https://github.com/IDAES/Ipopt as part of the Institute for the Design of
    Advanced Energy Systems Process Systems Engineering Framework (IDAES PSE
    Framework) Copyright (c) 2018-2019. See https://github.com/IDAES/idaes-pse.

This version of Ipopt was compiled using HSL, a collection of Fortran codes
    for large-scale scientific computation.  All technical papers, sales and
    publicity material resulting from use of the HSL codes within IPOPT must
    contain the following acknowledgement:
        HSL, a collection of Fortran codes for large-scale scientific
        computation. See http://www.hsl.rl.ac.uk.
******************************************************************************

This is Ipopt version 3.13.2, running with linear solver ma57.

Number of nonzeros in equality constraint Jacobian...:    11392
Number of nonzeros in inequality constraint Jacobian.:        0
Number of nonzeros in Lagrangian Hessian.............:        0

Total number of variables............................:     4212
                     variables with only lower bounds:        0
                variables with lower and upper bounds:        0
                     variables with only upper bounds:        0
Total number of equality constraints.................:     4212
Total number of inequality constraints...............:        0
        inequality constraints with only lower bounds:        0
   inequality constraints with lower and upper bounds:        0
        inequality constraints with only upper bounds:        0

iter    objective    inf_pr   inf_du lg(mu)  ||d||  lg(rg) alpha_du alpha_pr  ls
   0  0.0000000e+00 1.95e-02 0.00e+00  -1.0 0.00e+00    -  0.00e+00 0.00e+00   0
Reallocating memory for MA57: lfact (247926)
   1  0.0000000e+00 2.84e-14 0.00e+00  -3.8 2.18e-02    -  1.00e+00 1.00e+00h  1

Number of Iterations....: 1

                                   (scaled)                 (unscaled)
Objective...............:   0.0000000000000000e+00    0.0000000000000000e+00
Dual infeasibility......:   0.0000000000000000e+00    0.0000000000000000e+00
Constraint violation....:   2.8421709430403692e-14    2.8421709430403692e-14
Complementarity.........:   0.0000000000000000e+00    0.0000000000000000e+00
Overall NLP error.......:   2.8421709430403692e-14    2.8421709430403692e-14


Number of objective function evaluations             = 2
Number of objective gradient evaluations             = 2
Number of equality constraint evaluations            = 2
Number of inequality constraint evaluations          = 0
Number of equality constraint Jacobian evaluations   = 2
Number of inequality constraint Jacobian evaluations = 0
Number of Lagrangian Hessian evaluations             = 1
Total CPU secs in IPOPT (w/o function evaluations)   =      0.093
Total CPU secs in NLP function evaluations           =      0.000

EXIT: Optimal Solution Found.
Ipopt 3.13.2: linear_solver=ma57
output_file=ipopt.out
file_print_level=12


******************************************************************************
This program contains Ipopt, a library for large-scale nonlinear optimization.
 Ipopt is released as open source code under the Eclipse Public License (EPL).
         For more information visit http://projects.coin-or.org/Ipopt

This version of Ipopt was compiled from source code available at
    https://github.com/IDAES/Ipopt as part of the Institute for the Design of
    Advanced Energy Systems Process Systems Engineering Framework (IDAES PSE
    Framework) Copyright (c) 2018-2019. See https://github.com/IDAES/idaes-pse.

This version of Ipopt was compiled using HSL, a collection of Fortran codes
    for large-scale scientific computation.  All technical papers, sales and
    publicity material resulting from use of the HSL codes within IPOPT must
    contain the following acknowledgement:
        HSL, a collection of Fortran codes for large-scale scientific
        computation. See http://www.hsl.rl.ac.uk.
******************************************************************************

This is Ipopt version 3.13.2, running with linear solver ma57.

Number of nonzeros in equality constraint Jacobian...:    11392
Number of nonzeros in inequality constraint Jacobian.:        0
Number of nonzeros in Lagrangian Hessian.............:        0

Total number of variables............................:     4212
                     variables with only lower bounds:        0
                variables with lower and upper bounds:        0
                     variables with only upper bounds:        0
Total number of equality constraints.................:     4212
Total number of inequality constraints...............:        0
        inequality constraints with only lower bounds:        0
   inequality constraints with lower and upper bounds:        0
        inequality constraints with only upper bounds:        0

iter    objective    inf_pr   inf_du lg(mu)  ||d||  lg(rg) alpha_du alpha_pr  ls
   0  0.0000000e+00 1.95e-02 0.00e+00  -1.0 0.00e+00    -  0.00e+00 0.00e+00   0
Reallocating memory for MA57: lfact (247774)
   1  0.0000000e+00 2.84e-14 0.00e+00  -3.8 2.18e-02    -  1.00e+00 1.00e+00h  1

Number of Iterations....: 1

                                   (scaled)                 (unscaled)
Objective...............:   0.0000000000000000e+00    0.0000000000000000e+00
Dual infeasibility......:   0.0000000000000000e+00    0.0000000000000000e+00
Constraint violation....:   2.8421709430403692e-14    2.8421709430403692e-14
Complementarity.........:   0.0000000000000000e+00    0.0000000000000000e+00
Overall NLP error.......:   2.8421709430403692e-14    2.8421709430403692e-14


Number of objective function evaluations             = 2
Number of objective gradient evaluations             = 2
Number of equality constraint evaluations            = 2
Number of inequality constraint evaluations          = 0
Number of equality constraint Jacobian evaluations   = 2
Number of inequality constraint Jacobian evaluations = 0
Number of Lagrangian Hessian evaluations             = 1
Total CPU secs in IPOPT (w/o function evaluations)   =      0.092
Total CPU secs in NLP function evaluations           =      0.000

EXIT: Optimal Solution Found.
Ipopt 3.13.2: linear_solver=ma57
output_file=ipopt.out
file_print_level=12


******************************************************************************
This program contains Ipopt, a library for large-scale nonlinear optimization.
 Ipopt is released as open source code under the Eclipse Public License (EPL).
         For more information visit http://projects.coin-or.org/Ipopt

This version of Ipopt was compiled from source code available at
    https://github.com/IDAES/Ipopt as part of the Institute for the Design of
    Advanced Energy Systems Process Systems Engineering Framework (IDAES PSE
    Framework) Copyright (c) 2018-2019. See https://github.com/IDAES/idaes-pse.

This version of Ipopt was compiled using HSL, a collection of Fortran codes
    for large-scale scientific computation.  All technical papers, sales and
    publicity material resulting from use of the HSL codes within IPOPT must
    contain the following acknowledgement:
        HSL, a collection of Fortran codes for large-scale scientific
        computation. See http://www.hsl.rl.ac.uk.
******************************************************************************

This is Ipopt version 3.13.2, running with linear solver ma57.

Number of nonzeros in equality constraint Jacobian...:    27171
Number of nonzeros in inequality constraint Jacobian.:        0
Number of nonzeros in Lagrangian Hessian.............:     1071

Total number of variables............................:     9547
                     variables with only lower bounds:        0
                variables with lower and upper bounds:       51
                     variables with only upper bounds:        0
Total number of equality constraints.................:     9547
Total number of inequality constraints...............:        0
        inequality constraints with only lower bounds:        0
   inequality constraints with lower and upper bounds:        0
        inequality constraints with only upper bounds:        0

iter    objective    inf_pr   inf_du lg(mu)  ||d||  lg(rg) alpha_du alpha_pr  ls
   0  0.0000000e+00 9.90e+01 0.00e+00  -1.0 0.00e+00    -  0.00e+00 0.00e+00   0
Reallocating memory for MA57: lfact (593476)
   1  0.0000000e+00 1.50e-11 0.00e+00  -1.0 1.01e+02    -  1.00e+00 1.00e+00H  1

Number of Iterations....: 1

                                   (scaled)                 (unscaled)
Objective...............:   0.0000000000000000e+00    0.0000000000000000e+00
Dual infeasibility......:   0.0000000000000000e+00    0.0000000000000000e+00
Constraint violation....:   7.5033312896266580e-12    1.5006662579253316e-11
Complementarity.........:   0.0000000000000000e+00    0.0000000000000000e+00
Overall NLP error.......:   7.5033312896266580e-12    1.5006662579253316e-11


Number of objective function evaluations             = 3
Number of objective gradient evaluations             = 2
Number of equality constraint evaluations            = 3
Number of inequality constraint evaluations          = 0
Number of equality constraint Jacobian evaluations   = 2
Number of inequality constraint Jacobian evaluations = 0
Number of Lagrangian Hessian evaluations             = 1
Total CPU secs in IPOPT (w/o function evaluations)   =      0.277
Total CPU secs in NLP function evaluations           =      0.000

EXIT: Optimal Solution Found.
Ipopt 3.13.2: linear_solver=ma57
output_file=ipopt.out
file_print_level=12


******************************************************************************
This program contains Ipopt, a library for large-scale nonlinear optimization.
 Ipopt is released as open source code under the Eclipse Public License (EPL).
         For more information visit http://projects.coin-or.org/Ipopt

This version of Ipopt was compiled from source code available at
    https://github.com/IDAES/Ipopt as part of the Institute for the Design of
    Advanced Energy Systems Process Systems Engineering Framework (IDAES PSE
    Framework) Copyright (c) 2018-2019. See https://github.com/IDAES/idaes-pse.

This version of Ipopt was compiled using HSL, a collection of Fortran codes
    for large-scale scientific computation.  All technical papers, sales and
    publicity material resulting from use of the HSL codes within IPOPT must
    contain the following acknowledgement:
        HSL, a collection of Fortran codes for large-scale scientific
        computation. See http://www.hsl.rl.ac.uk.
******************************************************************************

This is Ipopt version 3.13.2, running with linear solver ma57.

Number of nonzeros in equality constraint Jacobian...:    27275
Number of nonzeros in inequality constraint Jacobian.:        0
Number of nonzeros in Lagrangian Hessian.............:     1072

Reallocating memory for MA57: lfact (666277)
Total number of variables............................:     9599
                     variables with only lower bounds:        1
                variables with lower and upper bounds:      102
                     variables with only upper bounds:        0
Total number of equality constraints.................:     9548
Total number of inequality constraints...............:        0
        inequality constraints with only lower bounds:        0
   inequality constraints with lower and upper bounds:        0
        inequality constraints with only upper bounds:        0

iter    objective    inf_pr   inf_du lg(mu)  ||d||  lg(rg) alpha_du alpha_pr  ls
   0 -3.1906347e+00 1.50e-11 1.30e-02  -1.0 0.00e+00    -  0.00e+00 0.00e+00   0
   1 -3.2389670e+00 5.54e+00 1.29e-01  -1.0 1.78e+02    -  9.39e-01 1.00e+00f  1
   2 -3.3930681e+00 7.00e+01 2.53e-02  -1.0 6.78e+02    -  1.00e+00 1.00e+00f  1
   3 -3.4507647e+00 1.23e+01 2.00e-03  -1.0 4.05e+02    -  1.00e+00 1.00e+00h  1
   4 -3.4477573e+00 5.44e-02 8.18e-06  -1.0 7.86e+00    -  1.00e+00 1.00e+00h  1
   5 -3.4551865e+00 2.64e-01 2.10e-05  -2.5 4.82e+01    -  9.99e-01 1.00e+00h  1
   6 -3.6074993e+00 6.17e+01 9.64e-02  -2.5 1.31e+03    -  1.00e+00 8.35e-01H  1
   7 -3.6096678e+00 4.10e+01 2.14e-04  -2.5 6.71e-01  -4.0 1.00e+00 1.00e+00h  1
   8 -3.6011554e+00 3.37e+00 2.22e-05  -2.5 7.94e+01    -  1.00e+00 1.00e+00h  1
   9 -3.6003042e+00 3.73e-02 1.25e-07  -2.5 7.43e+00    -  1.00e+00 1.00e+00h  1
iter    objective    inf_pr   inf_du lg(mu)  ||d||  lg(rg) alpha_du alpha_pr  ls
  10 -3.6003116e+00 7.42e-07 2.83e-08  -2.5 7.19e-02    -  1.00e+00 1.00e+00h  1
  11 -3.6710075e+00 3.19e+01 2.99e-04  -3.8 6.76e+02    -  8.85e-01 1.00e+00f  1
  12 -3.6847800e+00 8.26e+01 4.98e-04  -3.8 8.38e+02    -  2.33e-01 1.85e-01h  1
  13 -3.7097541e+00 5.19e+01 2.43e-04  -3.8 5.38e+02    -  5.35e-01 5.50e-01h  1
  14 -3.7293726e+00 2.95e+00 1.56e-05  -3.8 2.49e+02    -  1.00e+00 1.00e+00h  1
  15 -3.7295909e+00 3.44e-02 5.97e-08  -3.8 5.37e+00    -  1.00e+00 1.00e+00h  1
  16 -3.7295931e+00 3.83e-05 1.50e-09  -3.8 2.74e-02    -  1.00e+00 1.00e+00h  1
  17 -3.7412192e+00 4.18e+00 1.06e-04  -5.7 1.67e+02    -  6.26e-01 8.66e-01f  1
  18 -3.7437836e+00 1.17e-01 5.24e-06  -5.7 3.36e+01    -  9.53e-01 1.00e+00h  1
  19 -3.7438186e+00 8.05e-05 2.61e-10  -5.7 4.95e-01    -  1.00e+00 1.00e+00h  1
iter    objective    inf_pr   inf_du lg(mu)  ||d||  lg(rg) alpha_du alpha_pr  ls
  20 -3.7438186e+00 1.52e-09 1.84e-11  -5.7 6.54e-04    -  1.00e+00 1.00e+00h  1
  21 -3.7440025e+00 7.07e-04 4.20e-09  -8.6 2.35e+00    -  9.98e-01 9.99e-01f  1
  22 -3.7440028e+00 1.03e-09 2.87e-14  -8.6 4.07e-03    -  1.00e+00 1.00e+00h  1

Number of Iterations....: 22

                                   (scaled)                 (unscaled)
Objective...............:  -3.7440027837334062e+00   -3.7440027837334062e+00
Dual infeasibility......:   2.8673589959535288e-14    2.8673589959535288e-14
Constraint violation....:   1.0304574971087277e-09    1.0304574971087277e-09
Complementarity.........:   2.5059149161616608e-09    2.5059149161616608e-09
Overall NLP error.......:   2.5059149161616608e-09    2.5059149161616608e-09


Number of objective function evaluations             = 24
Number of objective gradient evaluations             = 23
Number of equality constraint evaluations            = 24
Number of inequality constraint evaluations          = 0
Number of equality constraint Jacobian evaluations   = 23
Number of inequality constraint Jacobian evaluations = 0
Number of Lagrangian Hessian evaluations             = 22
Total CPU secs in IPOPT (w/o function evaluations)   =      6.448
Total CPU secs in NLP function evaluations           =      0.004

EXIT: Optimal Solution Found.
Number of Iterations....: 22

                                   (scaled)                 (unscaled)
Objective...............:  -3.1906346635306826e+00   -3.1906346635306826e+00
Dual infeasibility......:  1.2970476003633635e-02   1.2970476003633635e-02
Constraint violation....:  1.5006662579253316e-11   1.5006662579253316e-11
Complementarity.........:  3.9383774014342904e+01   3.9383774014342904e+01
Overall NLP error.......:  3.9383774014342904e+01   3.9383774014342904e+01

Number of objective function evaluations             = 24
Number of objective gradient evaluations             = 23
Number of equality constraint evaluations            = 24
Number of inequality constraint evaluations          = 0
Number of equality constraint Jacobian evaluations   = 23
Number of inequality constraint Jacobian evaluations = 0
Number of Lagrangian Hessian evaluations             = 22
Total CPU secs in IPOPT (w/o function evaluations)   = 6.448
Total CPU secs in NLP function evaluations           = 0.004
EXIT: Optimal Solution Found.
Optimal experiment values: 
	Initial concentration: 0.50
	Temperature values: [0.00, 0.00, 0.00, 0.00, 0.00, 0.00, 0.00, 0.00, 0.00]
FIM at optimal design:
 [[5546.29268]]
Objective value at optimal design: 3.74
['u[0]', 'u[0.04]', 'u[0.08]', 'u[0.12]', 'u[0.16]', 'u[0.2]', 'u[0.24]', 'u[0.28]', 'u[0.32]', 'u[0.36]', 'u[0.4]', 'u[0.44]', 'u[0.48]', 'u[0.52]', 'u[0.56]', 'u[0.6]', 'u[0.64]', 'u[0.68]', 'u[0.72]', 'u[0.76]', 'u[0.8]', 'u[0.84]', 'u[0.88]', 'u[0.92]', 'u[0.96]', 'u[1.0]', 'u[1.04]', 'u[1.08]', 'u[1.12]', 'u[1.16]', 'u[1.2]', 'u[1.24]', 'u[1.28]', 'u[1.32]', 'u[1.36]', 'u[1.4]', 'u[1.44]', 'u[1.48]', 'u[1.52]', 'u[1.56]', 'u[1.6]', 'u[1.64]', 'u[1.68]', 'u[1.72]', 'u[1.76]', 'u[1.8]', 'u[1.84]', 'u[1.88]', 'u[1.92]', 'u[1.96]', 'u[2]']
['Build Time', 'Experiment Design', 'Experiment Design Names', 'Experiment Output Names', 'Experiment Outputs', 'FIM', 'FIM Condition Number', 'Finite Difference Scheme', 'Finite Difference Step', 'Initialization Time', 'Measurement Error', 'Measurement Error Names', 'Nominal Parameter Scaling', 'Objective expression', 'Prior FIM', 'Sensitivity Matrix', 'Solve Time', 'Solver Status', 'Termination Condition', 'Termination Message', 'Unknown Parameter Names', 'Unknown Parameters', 'Wall-clock Time', 'log10 A-opt', 'log10 D-opt', 'log10 E-opt']
Solve time (s): 7.011110124993138
Build time (s): 0.8151654580142349
Initialization time (s): 0.46067287493497133
Total wall time (s): 8.286948457942344

